n_res = 5;
n_events = 52;
n_prec = 132;
source = 1;
sink = 52;
min_lvl = [-11, -1, -3, -6, 3];
max_lvl = [-2, 8, 6, 1, 9];
rr = [| 0, -1, 0, 0, 0, -1, -2, 0, -2, -1, 0, -2, 0, 0, 0, 0, -1, -1, -1, 0, 0, -2, 0, 2, 2, 0, -1, 1, 0, 1, 2, -2, 0, 1, 1, -2, 1, 0, 2, 2, -2, 0, 1, 2, 0, -2, 0, -2, -2, 0, 2, 0
      | 0, -1, -1, 2, 0, -1, 0, 0, -2, 2, 1, 1, 1, 2, 0, -2, -1, 0, 2, -2, 0, 0, -2, 0, 1, 0, 1, 0, -2, 2, 0, 1, 2, 0, 0, -2, -1, -2, 0, 2, 0, 0, 0, -2, 0, -1, 1, 2, 2, 0, 1, 0
      | 0, -1, 0, 1, 2, 0, 2, -1, 1, 0, 2, -2, -2, -1, 1, 0, 0, 0, 2, 1, 0, 0, 0, 2, 0, -1, -1, 0, 0, 0, 1, -1, -2, -2, 0, -2, 2, 0, 1, 1, -1, 0, -2, 1, 0, -2, -1, 2, -2, 0, -1, 0
      | 0, 0, 0, 2, -1, -2, -1, 1, 1, -2, 0, -2, 0, 0, 0, 0, 1, -1, -1, 2, 1, 1, 0, 0, 2, -1, 0, 1, 0, 0, 0, 2, 0, -2, 0, 0, 0, 0, -2, 0, -1, 1, -2, 2, 0, 2, -1, 0, -2, 0, -1, 0
      | 0, 0, 1, 0, 0, 0, -1, 0, 2, 0, 0, 0, 0, -1, 0, 0, 2, 0, 0, 1, 0, 0, -1, 0, 0, 1, 2, 0, -2, 1, 1, -1, -2, 0, -1, 0, 0, 0, 0, -1, -1, 0, 2, 1, -1, 2, 1, -1, 2, 0, 1, 0 |];
prec = [| 1, 0, 8
        | 1, 0, 4
        | 1, 0, 26
        | 1, 0, 6
        | 1, 0, 3
        | 1, 0, 25
        | 1, 0, 5
        | 1, 0, 2
        | 1, 0, 7
        | 1, 0, 24
        | 1, 0, 10
        | 1, 0, 9
        | 2, 4, 11
        | 2, 4, 49
        | 3, 2, 32
        | 4, 0, 15
        | 5, 17, 13
        | 6, 11, 46
        | 6, -4, 24
        | 6, 23, 20
        | 6, 11, 43
        | 7, 8, 47
        | 7, -5, 25
        | 8, 2, 23
        | 9, -4, 51
        | 9, -4, 26
        | 9, 12, 23
        | 9, 6, 33
        | 10, 12, 38
        | 10, 5, 19
        | 10, 6, 30
        | 10, 9, 17
        | 11, 3, 49
        | 12, 8, 44
        | 12, 11, 35
        | 12, 8, 48
        | 12, 3, 39
        | 13, 5, 46
        | 13, 7, 36
        | 13, 2, 44
        | 14, -6, 51
        | 14, 10, 52
        | 15, 7, 27
        | 15, 0, 37
        | 16, 2, 19
        | 16, -170, 17
        | 17, 16, 43
        | 17, -4, 38
        | 18, 6, 51
        | 18, 1, 33
        | 19, -65, 37
        | 19, 2, 50
        | 19, 23, 34
        | 20, 6, 45
        | 21, 0, 31
        | 21, -105, 15
        | 22, 0, 43
        | 23, 4, 33
        | 23, 1, 18
        | 24, 4, 48
        | 24, 14, 50
        | 24, 2, 10
        | 25, 0, 47
        | 26, 9, 44
        | 26, 0, 35
        | 27, 3, 20
        | 27, 3, 45
        | 28, 6, 37
        | 29, -119, 31
        | 29, 18, 41
        | 29, -174, 17
        | 29, 21, 40
        | 30, 3, 19
        | 30, -152, 28
        | 30, 0, 31
        | 30, 1, 21
        | 30, -176, 6
        | 31, 0, 16
        | 31, -94, 24
        | 31, -161, 37
        | 32, 14, 12
        | 33, 0, 14
        | 34, -151, 31
        | 34, -91, 21
        | 34, 8, 29
        | 34, -137, 15
        | 34, 10, 36
        | 34, 4, 41
        | 35, -68, 12
        | 35, 13, 44
        | 36, -5, 46
        | 36, 20, 42
        | 36, -50, 13
        | 37, -66, 4
        | 37, -90, 6
        | 37, 5, 30
        | 37, -182, 10
        | 38, -139, 10
        | 38, -122, 17
        | 38, 5, 22
        | 39, 9, 48
        | 40, -93, 34
        | 40, 3, 50
        | 40, -185, 43
        | 40, -140, 29
        | 41, 1, 50
        | 41, 0, 40
        | 41, -94, 34
        | 41, -192, 19
        | 42, -1, 46
        | 42, -73, 36
        | 42, 4, 52
        | 43, 7, 28
        | 43, 1, 30
        | 44, 9, 52
        | 44, -72, 35
        | 44, -63, 5
        | 44, -96, 32
        | 45, 6, 52
        | 46, -56, 36
        | 46, -70, 42
        | 46, 1, 52
        | 47, 8, 52
        | 48, 10, 52
        | 49, 4, 52
        | 49, -8, 11
        | 49, -8, 2
        | 50, -127, 30
        | 50, 8, 52
        | 50, -171, 29
        | 50, -128, 38
        | 51, 10, 52 |];
